(declare-const delta_w Int)
(declare-const delta_y Int)
(declare-const delta_x Int)
(declare-const delta_z Int)
(declare-const delta_tmp Int)
(assert (exists
         ((|tmp'?1| Int) (|y'?2| Int) (|x'?3| Int) (|z'?4| Int) (|w'?5| Int)
            (phi_y?6 Int) (phi_z?7 Int) (phi_x?8 Int) (phi_w?9 Int)
            (havoc?10 Int) (z?11 Int) (w?12 Int) (x?13 Int) (y?14 Int)
            (tmp?15 Int))
         (and (<= (- z?11) 0) (< (- w?12) 0) (<= (- x?13) 0) (<= (- y?14) 0)
                (= (+ (- y?14) z?11) 0) (= (+ (- y?14) w?12 -1) 0)
                (= (+ (- y?14) x?13) 0) (< (+ x?13 -100000) 0)
                (< (+ y?14 -100000) 0) (or (< havoc?10 0) (< 0 havoc?10))
                (or (and (= (+ (mod w?12 2) -1) 0)
                           (= (+ (- phi_w?9) w?12 1) 0)
                           (= (+ (- phi_x?8) x?13 1) 0))
                      (and (or (< (+ (mod w?12 2) -1) 0)
                                 (< 0 (+ (mod w?12 2) -1)))
                             (= (+ (- phi_w?9) w?12) 0)
                             (= (+ (- phi_x?8) x?13) 0)))
                (or (and (= (mod z?11 2) 0) (= (+ (- phi_z?7) z?11 1) 0)
                           (= (+ (- phi_y?6) y?14 1) 0))
                      (and (or (< (mod z?11 2) 0) (< 0 (mod z?11 2)))
                             (= (+ (- phi_z?7) z?11) 0)
                             (= (+ (- phi_y?6) y?14) 0)))
                (= (+ |tmp'?1| (- havoc?10)) 0) (= (+ |y'?2| (- phi_y?6)) 0)
                (= (+ |x'?3| (- phi_x?8)) 0) (= (+ |z'?4| (- phi_z?7)) 0)
                (= (+ |w'?5| (- phi_w?9)) 0) (= delta_w (+ |w'?5| (- w?12)))
                (= delta_z (+ |z'?4| (- z?11)))
                (= delta_x (+ |x'?3| (- x?13)))
                (= delta_y (+ |y'?2| (- y?14)))
                (= delta_tmp (+ |tmp'?1| (- tmp?15))))))
(check-sat)
